AES/1_3_4/ssaes_r1-20_c3_rw1_e4_f0_k1-20_aes_1base_box_aes_mc_bidirectional/ExperimentMinisat_r18_k8cnf_2011-10-29-153149/Result
WARNING: for repeatability, setting FPU to use double precision
============================[ Problem Statistics ]=============================
|                                                                             |
|  Number of variables:          1044                                         |
|  Number of clauses:            4584                                         |
|  Parse time:                   0.00 s                                       |
|  Eliminated clauses:           0.01 Mb                                      |
|  Simplification time:          0.00 s                                       |
|                                                                             |
=============================[ Search Statistics ]==============================
| Conflicts  |          ORIGINAL         |          LEARNT          | Progress |
|            |    Vars  Clauses Literals |    Limit  Clauses Lit/Cl |          |
================================================================================
|        100 |     720     3648    12000 |     1337      100     12 |  9.196 % |
|        250 |     720     3648    12000 |     1471      250     13 |  9.195 % |
===============================================================================
restarts              : 4
conflicts             : 444            (17080 /sec)
decisions             : 555            (0.00 % random) (21349 /sec)
propagations          : 104433         (4017272 /sec)
conflict literals     : 5670           (28.20 % deleted)
Memory used           : 8.00 MB
CPU time              : 0.025996 s

SATISFIABLE
